c FILE: queen11_11.col
c Translated from Stanford GraphBase File: queen11_11.gb
c Stanford GraphBase ID: gunion(board(11,11,0,0,-1,0,0),board(11,11,0,0,-2,0,0),0,0)
p edge 121 3960
e 2 1
e 3 1
e 3 2
e 4 1
e 4 2
e 4 3
e 5 1
e 5 2
e 5 3
e 5 4
e 6 1
e 6 2
e 6 3
e 6 4
e 6 5
e 7 1
e 7 2
e 7 3
e 7 4
e 7 5
e 7 6
e 8 1
e 8 2
e 8 3
e 8 4
e 8 5
e 8 6
e 8 7
e 9 1
e 9 2
e 9 3
e 9 4
e 9 5
e 9 6
e 9 7
e 9 8
e 10 1
e 10 2
e 10 3
e 10 4
e 10 5
e 10 6
e 10 7
e 10 8
e 10 9
e 11 1
e 11 2
e 11 3
e 11 4
e 11 5
e 11 6
e 11 7
e 11 8
e 11 9
e 11 10
e 12 1
e 12 2
e 13 1
e 13 2
e 13 3
e 13 12
e 14 2
e 14 3
e 14 4
e 14 12
e 14 13
e 15 3
e 15 4
e 15 5
e 15 12
e 15 13
e 15 14
e 16 4
e 16 5
e 16 6
e 16 12
e 16 13
e 16 14
e 16 15
e 17 5
e 17 6
e 17 7
e 17 12
e 17 13
e 17 14
e 17 15
e 17 16
e 18 6
e 18 7
e 18 8
e 18 12
e 18 13
e 18 14
e 18 15
e 18 16
e 18 17
e 19 7
e 19 8
e 19 9
e 19 12
e 19 13
e 19 14
e 19 15
e 19 16
e 19 17
e 19 18
e 20 8
e 20 9
e 20 10
e 20 12
e 20 13
e 20 14
e 20 15
e 20 16
e 20 17
e 20 18
e 20 19
e 21 9
e 21 10
e 21 11
e 21 12
e 21 13
e 21 14
e 21 15
e 21 16
e 21 17
e 21 18
e 21 19
e 21 20
e 22 10
e 22 11
e 22 12
e 22 13
e 22 14
e 22 15
e 22 16
e 22 17
e 22 18
e 22 19
e 22 20
e 22 21
e 23 1
e 23 3
e 23 12
e 23 13
e 24 2
e 24 4
e 24 12
e 24 13
e 24 14
e 24 23
e 25 1
e 25 3
e 25 5
e 25 13
e 25 14
e 25 15
e 25 23
e 25 24
e 26 2
e 26 4
e 26 6
e 26 14
e 26 15
e 26 16
e 26 23
e 26 24
e 26 25
e 27 3
e 27 5
e 27 7
e 27 15
e 27 16
e 27 17
e 27 23
e 27 24
e 27 25
e 27 26
e 28 4
e 28 6
e 28 8
e 28 16
e 28 17
e 28 18
e 28 23
e 28 24
e 28 25
e 28 26
e 28 27
e 29 5
e 29 7
e 29 9
e 29 17
e 29 18
e 29 19
e 29 23
e 29 24
e 29 25
e 29 26
e 29 27
e 29 28
e 30 6
e 30 8
e 30 10
e 30 18
e 30 19
e 30 20
e 30 23
e 30 24
e 30 25
e 30 26
e 30 27
e 30 28
e 30 29
e 31 7
e 31 9
e 31 11
e 31 19
e 31 20
e 31 21
e 31 23
e 31 24
e 31 25
e 31 26
e 31 27
e 31 28
e 31 29
e 31 30
e 32 8
e 32 10
e 32 20
e 32 21
e 32 22
e 32 23
e 32 24
e 32 25
e 32 26
e 32 27
e 32 28
e 32 29
e 32 30
e 32 31
e 33 9
e 33 11
e 33 21
e 33 22
e 33 23
e 33 24
e 33 25
e 33 26
e 33 27
e 33 28
e 33 29
e 33 30
e 33 31
e 33 32
e 34 1
e 34 4
e 34 12
e 34 14
e 34 23
e 34 24
e 35 2
e 35 5
e 35 13
e 35 15
e 35 23
e 35 24
e 35 25
e 35 34
e 36 3
e 36 6
e 36 12
e 36 14
e 36 16
e 36 24
e 36 25
e 36 26
e 36 34
e 36 35
e 37 1
e 37 4
e 37 7
e 37 13
e 37 15
e 37 17
e 37 25
e 37 26
e 37 27
e 37 34
e 37 35
e 37 36
e 38 2
e 38 5
e 38 8
e 38 14
e 38 16
e 38 18
e 38 26
e 38 27
e 38 28
e 38 34
e 38 35
e 38 36
e 38 37
e 39 3
e 39 6
e 39 9
e 39 15
e 39 17
e 39 19
e 39 27
e 39 28
e 39 29
e 39 34
e 39 35
e 39 36
e 39 37
e 39 38
e 40 4
e 40 7
e 40 10
e 40 16
e 40 18
e 40 20
e 40 28
e 40 29
e 40 30
e 40 34
e 40 35
e 40 36
e 40 37
e 40 38
e 40 39
e 41 5
e 41 8
e 41 11
e 41 17
e 41 19
e 41 21
e 41 29
e 41 30
e 41 31
e 41 34
e 41 35
e 41 36
e 41 37
e 41 38
e 41 39
e 41 40
e 42 6
e 42 9
e 42 18
e 42 20
e 42 22
e 42 30
e 42 31
e 42 32
e 42 34
e 42 35
e 42 36
e 42 37
e 42 38
e 42 39
e 42 40
e 42 41
e 43 7
e 43 10
e 43 19
e 43 21
e 43 31
e 43 32
e 43 33
e 43 34
e 43 35
e 43 36
e 43 37
e 43 38
e 43 39
e 43 40
e 43 41
e 43 42
e 44 8
e 44 11
e 44 20
e 44 22
e 44 32
e 44 33
e 44 34
e 44 35
e 44 36
e 44 37
e 44 38
e 44 39
e 44 40
e 44 41
e 44 42
e 44 43
e 45 1
e 45 5
e 45 12
e 45 15
e 45 23
e 45 25
e 45 34
e 45 35
e 46 2
e 46 6
e 46 13
e 46 16
e 46 24
e 46 26
e 46 34
e 46 35
e 46 36
e 46 45
e 47 3
e 47 7
e 47 14
e 47 17
e 47 23
e 47 25
e 47 27
e 47 35
e 47 36
e 47 37
e 47 45
e 47 46
e 48 4
e 48 8
e 48 12
e 48 15
e 48 18
e 48 24
e 48 26
e 48 28
e 48 36
e 48 37
e 48 38
e 48 45
e 48 46
e 48 47
e 49 1
e 49 5
e 49 9
e 49 13
e 49 16
e 49 19
e 49 25
e 49 27
e 49 29
e 49 37
e 49 38
e 49 39
e 49 45
e 49 46
e 49 47
e 49 48
e 50 2
e 50 6
e 50 10
e 50 14
e 50 17
e 50 20
e 50 26
e 50 28
e 50 30
e 50 38
e 50 39
e 50 40
e 50 45
e 50 46
e 50 47
e 50 48
e 50 49
e 51 3
e 51 7
e 51 11
e 51 15
e 51 18
e 51 21
e 51 27
e 51 29
e 51 31
e 51 39
e 51 40
e 51 41
e 51 45
e 51 46
e 51 47
e 51 48
e 51 49
e 51 50
e 52 4
e 52 8
e 52 16
e 52 19
e 52 22
e 52 28
e 52 30
e 52 32
e 52 40
e 52 41
e 52 42
e 52 45
e 52 46
e 52 47
e 52 48
e 52 49
e 52 50
e 52 51
e 53 5
e 53 9
e 53 17
e 53 20
e 53 29
e 53 31
e 53 33
e 53 41
e 53 42
e 53 43
e 53 45
e 53 46
e 53 47
e 53 48
e 53 49
e 53 50
e 53 51
e 53 52
e 54 6
e 54 10
e 54 18
e 54 21
e 54 30
e 54 32
e 54 42
e 54 43
e 54 44
e 54 45
e 54 46
e 54 47
e 54 48
e 54 49
e 54 50
e 54 51
e 54 52
e 54 53
e 55 7
e 55 11
e 55 19
e 55 22
e 55 31
e 55 33
e 55 43
e 55 44
e 55 45
e 55 46
e 55 47
e 55 48
e 55 49
e 55 50
e 55 51
e 55 52
e 55 53
e 55 54
e 56 1
e 56 6
e 56 12
e 56 16
e 56 23
e 56 26
e 56 34
e 56 36
e 56 45
e 56 46
e 57 2
e 57 7
e 57 13
e 57 17
e 57 24
e 57 27
e 57 35
e 57 37
e 57 45
e 57 46
e 57 47
e 57 56
e 58 3
e 58 8
e 58 14
e 58 18
e 58 25
e 58 28
e 58 34
e 58 36
e 58 38
e 58 46
e 58 47
e 58 48
e 58 56
e 58 57
e 59 4
e 59 9
e 59 15
e 59 19
e 59 23
e 59 26
e 59 29
e 59 35
e 59 37
e 59 39
e 59 47
e 59 48
e 59 49
e 59 56
e 59 57
e 59 58
e 60 5
e 60 10
e 60 12
e 60 16
e 60 20
e 60 24
e 60 27
e 60 30
e 60 36
e 60 38
e 60 40
e 60 48
e 60 49
e 60 50
e 60 56
e 60 57
e 60 58
e 60 59
e 61 1
e 61 6
e 61 11
e 61 13
e 61 17
e 61 21
e 61 25
e 61 28
e 61 31
e 61 37
e 61 39
e 61 41
e 61 49
e 61 50
e 61 51
e 61 56
e 61 57
e 61 58
e 61 59
e 61 60
e 62 2
e 62 7
e 62 14
e 62 18
e 62 22
e 62 26
e 62 29
e 62 32
e 62 38
e 62 40
e 62 42
e 62 50
e 62 51
e 62 52
e 62 56
e 62 57
e 62 58
e 62 59
e 62 60
e 62 61
e 63 3
e 63 8
e 63 15
e 63 19
e 63 27
e 63 30
e 63 33
e 63 39
e 63 41
e 63 43
e 63 51
e 63 52
e 63 53
e 63 56
e 63 57
e 63 58
e 63 59
e 63 60
e 63 61
e 63 62
e 64 4
e 64 9
e 64 16
e 64 20
e 64 28
e 64 31
e 64 40
e 64 42
e 64 44
e 64 52
e 64 53
e 64 54
e 64 56
e 64 57
e 64 58
e 64 59
e 64 60
e 64 61
e 64 62
e 64 63
e 65 5
e 65 10
e 65 17
e 65 21
e 65 29
e 65 32
e 65 41
e 65 43
e 65 53
e 65 54
e 65 55
e 65 56
e 65 57
e 65 58
e 65 59
e 65 60
e 65 61
e 65 62
e 65 63
e 65 64
e 66 6
e 66 11
e 66 18
e 66 22
e 66 30
e 66 33
e 66 42
e 66 44
e 66 54
e 66 55
e 66 56
e 66 57
e 66 58
e 66 59
e 66 60
e 66 61
e 66 62
e 66 63
e 66 64
e 66 65
e 67 1
e 67 7
e 67 12
e 67 17
e 67 23
e 67 27
e 67 34
e 67 37
e 67 45
e 67 47
e 67 56
e 67 57
e 68 2
e 68 8
e 68 13
e 68 18
e 68 24
e 68 28
e 68 35
e 68 38
e 68 46
e 68 48
e 68 56
e 68 57
e 68 58
e 68 67
e 69 3
e 69 9
e 69 14
e 69 19
e 69 25
e 69 29
e 69 36
e 69 39
e 69 45
e 69 47
e 69 49
e 69 57
e 69 58
e 69 59
e 69 67
e 69 68
e 70 4
e 70 10
e 70 15
e 70 20
e 70 26
e 70 30
e 70 34
e 70 37
e 70 40
e 70 46
e 70 48
e 70 50
e 70 58
e 70 59
e 70 60
e 70 67
e 70 68
e 70 69
e 71 5
e 71 11
e 71 16
e 71 21
e 71 23
e 71 27
e 71 31
e 71 35
e 71 38
e 71 41
e 71 47
e 71 49
e 71 51
e 71 59
e 71 60
e 71 61
e 71 67
e 71 68
e 71 69
e 71 70
e 72 6
e 72 12
e 72 17
e 72 22
e 72 24
e 72 28
e 72 32
e 72 36
e 72 39
e 72 42
e 72 48
e 72 50
e 72 52
e 72 60
e 72 61
e 72 62
e 72 67
e 72 68
e 72 69
e 72 70
e 72 71
e 73 1
e 73 7
e 73 13
e 73 18
e 73 25
e 73 29
e 73 33
e 73 37
e 73 40
e 73 43
e 73 49
e 73 51
e 73 53
e 73 61
e 73 62
e 73 63
e 73 67
e 73 68
e 73 69
e 73 70
e 73 71
e 73 72
e 74 2
e 74 8
e 74 14
e 74 19
e 74 26
e 74 30
e 74 38
e 74 41
e 74 44
e 74 50
e 74 52
e 74 54
e 74 62
e 74 63
e 74 64
e 74 67
e 74 68
e 74 69
e 74 70
e 74 71
e 74 72
e 74 73
e 75 3
e 75 9
e 75 15
e 75 20
e 75 27
e 75 31
e 75 39
e 75 42
e 75 51
e 75 53
e 75 55
e 75 63
e 75 64
e 75 65
e 75 67
e 75 68
e 75 69
e 75 70
e 75 71
e 75 72
e 75 73
e 75 74
e 76 4
e 76 10
e 76 16
e 76 21
e 76 28
e 76 32
e 76 40
e 76 43
e 76 52
e 76 54
e 76 64
e 76 65
e 76 66
e 76 67
e 76 68
e 76 69
e 76 70
e 76 71
e 76 72
e 76 73
e 76 74
e 76 75
e 77 5
e 77 11
e 77 17
e 77 22
e 77 29
e 77 33
e 77 41
e 77 44
e 77 53
e 77 55
e 77 65
e 77 66
e 77 67
e 77 68
e 77 69
e 77 70
e 77 71
e 77 72
e 77 73
e 77 74
e 77 75
e 77 76
e 78 1
e 78 8
e 78 12
e 78 18
e 78 23
e 78 28
e 78 34
e 78 38
e 78 45
e 78 48
e 78 56
e 78 58
e 78 67
e 78 68
e 79 2
e 79 9
e 79 13
e 79 19
e 79 24
e 79 29
e 79 35
e 79 39
e 79 46
e 79 49
e 79 57
e 79 59
e 79 67
e 79 68
e 79 69
e 79 78
e 80 3
e 80 10
e 80 14
e 80 20
e 80 25
e 80 30
e 80 36
e 80 40
e 80 47
e 80 50
e 80 56
e 80 58
e 80 60
e 80 68
e 80 69
e 80 70
e 80 78
e 80 79
e 81 4
e 81 11
e 81 15
e 81 21
e 81 26
e 81 31
e 81 37
e 81 41
e 81 45
e 81 48
e 81 51
e 81 57
e 81 59
e 81 61
e 81 69
e 81 70
e 81 71
e 81 78
e 81 79
e 81 80
e 82 5
e 82 16
e 82 22
e 82 27
e 82 32
e 82 34
e 82 38
e 82 42
e 82 46
e 82 49
e 82 52
e 82 58
e 82 60
e 82 62
e 82 70
e 82 71
e 82 72
e 82 78
e 82 79
e 82 80
e 82 81
e 83 6
e 83 17
e 83 23
e 83 28
e 83 33
e 83 35
e 83 39
e 83 43
e 83 47
e 83 50
e 83 53
e 83 59
e 83 61
e 83 63
e 83 71
e 83 72
e 83 73
e 83 78
e 83 79
e 83 80
e 83 81
e 83 82
e 84 7
e 84 12
e 84 18
e 84 24
e 84 29
e 84 36
e 84 40
e 84 44
e 84 48
e 84 51
e 84 54
e 84 60
e 84 62
e 84 64
e 84 72
e 84 73
e 84 74
e 84 78
e 84 79
e 84 80
e 84 81
e 84 82
e 84 83
e 85 1
e 85 8
e 85 13
e 85 19
e 85 25
e 85 30
e 85 37
e 85 41
e 85 49
e 85 52
e 85 55
e 85 61
e 85 63
e 85 65
e 85 73
e 85 74
e 85 75
e 85 78
e 85 79
e 85 80
e 85 81
e 85 82
e 85 83
e 85 84
e 86 2
e 86 9
e 86 14
e 86 20
e 86 26
e 86 31
e 86 38
e 86 42
e 86 50
e 86 53
e 86 62
e 86 64
e 86 66
e 86 74
e 86 75
e 86 76
e 86 78
e 86 79
e 86 80
e 86 81
e 86 82
e 86 83
e 86 84
e 86 85
e 87 3
e 87 10
e 87 15
e 87 21
e 87 27
e 87 32
e 87 39
e 87 43
e 87 51
e 87 54
e 87 63
e 87 65
e 87 75
e 87 76
e 87 77
e 87 78
e 87 79
e 87 80
e 87 81
e 87 82
e 87 83
e 87 84
e 87 85
e 87 86
e 88 4
e 88 11
e 88 16
e 88 22
e 88 28
e 88 33
e 88 40
e 88 44
e 88 52
e 88 55
e 88 64
e 88 66
e 88 76
e 88 77
e 88 78
e 88 79
e 88 80
e 88 81
e 88 82
e 88 83
e 88 84
e 88 85
e 88 86
e 88 87
e 89 1
e 89 9
e 89 12
e 89 19
e 89 23
e 89 29
e 89 34
e 89 39
e 89 45
e 89 49
e 89 56
e 89 59
e 89 67
e 89 69
e 89 78
e 89 79
e 90 2
e 90 10
e 90 13
e 90 20
e 90 24
e 90 30
e 90 35
e 90 40
e 90 46
e 90 50
e 90 57
e 90 60
e 90 68
e 90 70
e 90 78
e 90 79
e 90 80
e 90 89
e 91 3
e 91 11
e 91 14
e 91 21
e 91 25
e 91 31
e 91 36
e 91 41
e 91 47
e 91 51
e 91 58
e 91 61
e 91 67
e 91 69
e 91 71
e 91 79
e 91 80
e 91 81
e 91 89
e 91 90
e 92 4
e 92 15
e 92 22
e 92 26
e 92 32
e 92 37
e 92 42
e 92 48
e 92 52
e 92 56
e 92 59
e 92 62
e 92 68
e 92 70
e 92 72
e 92 80
e 92 81
e 92 82
e 92 89
e 92 90
e 92 91
e 93 5
e 93 16
e 93 27
e 93 33
e 93 38
e 93 43
e 93 45
e 93 49
e 93 53
e 93 57
e 93 60
e 93 63
e 93 69
e 93 71
e 93 73
e 93 81
e 93 82
e 93 83
e 93 89
e 93 90
e 93 91
e 93 92
e 94 6
e 94 17
e 94 28
e 94 34
e 94 39
e 94 44
e 94 46
e 94 50
e 94 54
e 94 58
e 94 61
e 94 64
e 94 70
e 94 72
e 94 74
e 94 82
e 94 83
e 94 84
e 94 89
e 94 90
e 94 91
e 94 92
e 94 93
e 95 7
e 95 18
e 95 23
e 95 29
e 95 35
e 95 40
e 95 47
e 95 51
e 95 55
e 95 59
e 95 62
e 95 65
e 95 71
e 95 73
e 95 75
e 95 83
e 95 84
e 95 85
e 95 89
e 95 90
e 95 91
e 95 92
e 95 93
e 95 94
e 96 8
e 96 12
e 96 19
e 96 24
e 96 30
e 96 36
e 96 41
e 96 48
e 96 52
e 96 60
e 96 63
e 96 66
e 96 72
e 96 74
e 96 76
e 96 84
e 96 85
e 96 86
e 96 89
e 96 90
e 96 91
e 96 92
e 96 93
e 96 94
e 96 95
e 97 1
e 97 9
e 97 13
e 97 20
e 97 25
e 97 31
e 97 37
e 97 42
e 97 49
e 97 53
e 97 61
e 97 64
e 97 73
e 97 75
e 97 77
e 97 85
e 97 86
e 97 87
e 97 89
e 97 90
e 97 91
e 97 92
e 97 93
e 97 94
e 97 95
e 97 96
e 98 2
e 98 10
e 98 14
e 98 21
e 98 26
e 98 32
e 98 38
e 98 43
e 98 50
e 98 54
e 98 62
e 98 65
e 98 74
e 98 76
e 98 86
e 98 87
e 98 88
e 98 89
e 98 90
e 98 91
e 98 92
e 98 93
e 98 94
e 98 95
e 98 96
e 98 97
e 99 3
e 99 11
e 99 15
e 99 22
e 99 27
e 99 33
e 99 39
e 99 44
e 99 51
e 99 55
e 99 63
e 99 66
e 99 75
e 99 77
e 99 87
e 99 88
e 99 89
e 99 90
e 99 91
e 99 92
e 99 93
e 99 94
e 99 95
e 99 96
e 99 97
e 99 98
e 100 1
e 100 10
e 100 12
e 100 20
e 100 23
e 100 30
e 100 34
e 100 40
e 100 45
e 100 50
e 100 56
e 100 60
e 100 67
e 100 70
e 100 78
e 100 80
e 100 89
e 100 90
e 101 2
e 101 11
e 101 13
e 101 21
e 101 24
e 101 31
e 101 35
e 101 41
e 101 46
e 101 51
e 101 57
e 101 61
e 101 68
e 101 71
e 101 79
e 101 81
e 101 89
e 101 90
e 101 91
e 101 100
e 102 3
e 102 14
e 102 22
e 102 25
e 102 32
e 102 36
e 102 42
e 102 47
e 102 52
e 102 58
e 102 62
e 102 69
e 102 72
e 102 78
e 102 80
e 102 82
e 102 90
e 102 91
e 102 92
e 102 100
e 102 101
e 103 4
e 103 15
e 103 26
e 103 33
e 103 37
e 103 43
e 103 48
e 103 53
e 103 59
e 103 63
e 103 67
e 103 70
e 103 73
e 103 79
e 103 81
e 103 83
e 103 91
e 103 92
e 103 93
e 103 100
e 103 101
e 103 102
e 104 5
e 104 16
e 104 27
e 104 38
e 104 44
e 104 49
e 104 54
e 104 56
e 104 60
e 104 64
e 104 68
e 104 71
e 104 74
e 104 80
e 104 82
e 104 84
e 104 92
e 104 93
e 104 94
e 104 100
e 104 101
e 104 102
e 104 103
e 105 6
e 105 17
e 105 28
e 105 39
e 105 45
e 105 50
e 105 55
e 105 57
e 105 61
e 105 65
e 105 69
e 105 72
e 105 75
e 105 81
e 105 83
e 105 85
e 105 93
e 105 94
e 105 95
e 105 100
e 105 101
e 105 102
e 105 103
e 105 104
e 106 7
e 106 18
e 106 29
e 106 34
e 106 40
e 106 46
e 106 51
e 106 58
e 106 62
e 106 66
e 106 70
e 106 73
e 106 76
e 106 82
e 106 84
e 106 86
e 106 94
e 106 95
e 106 96
e 106 100
e 106 101
e 106 102
e 106 103
e 106 104
e 106 105
e 107 8
e 107 19
e 107 23
e 107 30
e 107 35
e 107 41
e 107 47
e 107 52
e 107 59
e 107 63
e 107 71
e 107 74
e 107 77
e 107 83
e 107 85
e 107 87
e 107 95
e 107 96
e 107 97
e 107 100
e 107 101
e 107 102
e 107 103
e 107 104
e 107 105
e 107 106
e 108 9
e 108 12
e 108 20
e 108 24
e 108 31
e 108 36
e 108 42
e 108 48
e 108 53
e 108 60
e 108 64
e 108 72
e 108 75
e 108 84
e 108 86
e 108 88
e 108 96
e 108 97
e 108 98
e 108 100
e 108 101
e 108 102
e 108 103
e 108 104
e 108 105
e 108 106
e 108 107
e 109 1
e 109 10
e 109 13
e 109 21
e 109 25
e 109 32
e 109 37
e 109 43
e 109 49
e 109 54
e 109 61
e 109 65
e 109 73
e 109 76
e 109 85
e 109 87
e 109 97
e 109 98
e 109 99
e 109 100
e 109 101
e 109 102
e 109 103
e 109 104
e 109 105
e 109 106
e 109 107
e 109 108
e 110 2
e 110 11
e 110 14
e 110 22
e 110 26
e 110 33
e 110 38
e 110 44
e 110 50
e 110 55
e 110 62
e 110 66
e 110 74
e 110 77
e 110 86
e 110 88
e 110 98
e 110 99
e 110 100
e 110 101
e 110 102
e 110 103
e 110 104
e 110 105
e 110 106
e 110 107
e 110 108
e 110 109
e 111 1
e 111 11
e 111 12
e 111 21
e 111 23
e 111 31
e 111 34
e 111 41
e 111 45
e 111 51
e 111 56
e 111 61
e 111 67
e 111 71
e 111 78
e 111 81
e 111 89
e 111 91
e 111 100
e 111 101
e 112 2
e 112 13
e 112 22
e 112 24
e 112 32
e 112 35
e 112 42
e 112 46
e 112 52
e 112 57
e 112 62
e 112 68
e 112 72
e 112 79
e 112 82
e 112 90
e 112 92
e 112 100
e 112 101
e 112 102
e 112 111
e 113 3
e 113 14
e 113 25
e 113 33
e 113 36
e 113 43
e 113 47
e 113 53
e 113 58
e 113 63
e 113 69
e 113 73
e 113 80
e 113 83
e 113 89
e 113 91
e 113 93
e 113 101
e 113 102
e 113 103
e 113 111
e 113 112
e 114 4
e 114 15
e 114 26
e 114 37
e 114 44
e 114 48
e 114 54
e 114 59
e 114 64
e 114 70
e 114 74
e 114 78
e 114 81
e 114 84
e 114 90
e 114 92
e 114 94
e 114 102
e 114 103
e 114 104
e 114 111
e 114 112
e 114 113
e 115 5
e 115 16
e 115 27
e 115 38
e 115 49
e 115 55
e 115 60
e 115 65
e 115 67
e 115 71
e 115 75
e 115 79
e 115 82
e 115 85
e 115 91
e 115 93
e 115 95
e 115 103
e 115 104
e 115 105
e 115 111
e 115 112
e 115 113
e 115 114
e 116 6
e 116 17
e 116 28
e 116 39
e 116 50
e 116 56
e 116 61
e 116 66
e 116 68
e 116 72
e 116 76
e 116 80
e 116 83
e 116 86
e 116 92
e 116 94
e 116 96
e 116 104
e 116 105
e 116 106
e 116 111
e 116 112
e 116 113
e 116 114
e 116 115
e 117 7
e 117 18
e 117 29
e 117 40
e 117 45
e 117 51
e 117 57
e 117 62
e 117 69
e 117 73
e 117 77
e 117 81
e 117 84
e 117 87
e 117 93
e 117 95
e 117 97
e 117 105
e 117 106
e 117 107
e 117 111
e 117 112
e 117 113
e 117 114
e 117 115
e 117 116
e 118 8
e 118 19
e 118 30
e 118 34
e 118 41
e 118 46
e 118 52
e 118 58
e 118 63
e 118 70
e 118 74
e 118 82
e 118 85
e 118 88
e 118 94
e 118 96
e 118 98
e 118 106
e 118 107
e 118 108
e 118 111
e 118 112
e 118 113
e 118 114
e 118 115
e 118 116
e 118 117
e 119 9
e 119 20
e 119 23
e 119 31
e 119 35
e 119 42
e 119 47
e 119 53
e 119 59
e 119 64
e 119 71
e 119 75
e 119 83
e 119 86
e 119 95
e 119 97
e 119 99
e 119 107
e 119 108
e 119 109
e 119 111
e 119 112
e 119 113
e 119 114
e 119 115
e 119 116
e 119 117
e 119 118
e 120 10
e 120 12
e 120 21
e 120 24
e 120 32
e 120 36
e 120 43
e 120 48
e 120 54
e 120 60
e 120 65
e 120 72
e 120 76
e 120 84
e 120 87
e 120 96
e 120 98
e 120 108
e 120 109
e 120 110
e 120 111
e 120 112
e 120 113
e 120 114
e 120 115
e 120 116
e 120 117
e 120 118
e 120 119
e 121 1
e 121 11
e 121 13
e 121 22
e 121 25
e 121 33
e 121 37
e 121 44
e 121 49
e 121 55
e 121 61
e 121 66
e 121 73
e 121 77
e 121 85
e 121 88
e 121 97
e 121 99
e 121 109
e 121 110
e 121 111
e 121 112
e 121 113
e 121 114
e 121 115
e 121 116
e 121 117
e 121 118
e 121 119
e 121 120
